c colouring generated by benchmark framework
p edge 81 1056
v 1 7
v 2 3
v 3 1
v 4 11
v 5 8
v 6 12
v 7 13
v 8 14
v 9 15
v 10 12
v 11 4
v 12 8
v 13 7
v 14 9
v 15 6
v 16 10
v 17 11
v 18 1
v 19 8
v 20 10
v 21 6
v 22 5
v 23 2
v 24 0
v 25 1
v 26 9
v 27 7
v 28 9
v 29 1
v 30 0
v 31 3
v 32 4
v 33 5
v 34 6
v 35 2
v 36 8
v 37 10
v 38 7
v 39 4
v 40 1
v 41 0
v 42 2
v 43 3
v 44 5
v 45 9
v 46 11
v 47 8
v 48 5
v 49 2
v 50 3
v 51 1
v 52 0
v 53 4
v 54 12
v 55 14
v 56 6
v 57 3
v 58 0
v 59 5
v 60 4
v 61 2
v 62 1
v 63 10
v 64 2
v 65 9
v 66 7
v 67 4
v 68 1
v 69 3
v 70 5
v 71 8
v 72 6
v 73 4
v 74 12
v 75 11
v 76 10
v 77 6
v 78 8
v 79 9
v 80 7
v 81 5
